--- Job OPF_file Start 05/29/18 23:40:04 24.5.6 r55090 WEX-WEI x86 64bit/MS Windows
GAMS 24.5.6   Copyright (C) 1987-2015 GAMS Development. All rights reserved
Licensee: Medium MUD - 10 User License                   G170505:1033AO-GEN
          Penn State University, John & Willie Leone Dept of Energy DC11293
          License for teaching and research at degree granting institutions
          License_Admin:_Mort_Webster,_mort@psu.edu________________________
--- Starting compilation
--- OPF_file.gms(14) 2 Mb
--- .WECC_Gams.txt(15) 4 Mb
--- ..WECC_gen_loc_data.txt(983) 4 Mb
--- .WECC_Gams.txt(26) 4 Mb
--- ..WECC_gen_data.txt(983) 4 Mb
--- .WECC_Gams.txt(27) 4 Mb
--- ..WECC_line_data.txt(708) 4 Mb
--- .WECC_Gams.txt(32) 4 Mb
--- GDXin=C:\Users\Jesse Bukenberger\Documents\GitHub\TransExpand\DC_OPF_DetEQ\300_bus_WECC_files\gams_models\candidate_plan_opf\MtoG.gdx
--- .WECC_Gams.txt(70) 4 Mb
--- OPF_file.gms(98) 4 Mb
--- Starting execution: elapsed 0:00:00.007
--- OPF_file.gms(2833) 6 Mb
--- Generating LP model opf
--- OPF_file.gms(2836) 11 Mb
---   5,887 rows  19,519 columns  43,423 non-zeroes
--- Executing CPLEX: elapsed 0:00:00.069

IBM ILOG CPLEX   24.5.6 r55090 Released Nov 27, 2015 WEI x86 64bit/MS Windows 
--- GAMS/Cplex licensed for continuous and discrete problems.
Cplex 12.6.2.0

Reading parameter(s) from "C:\Users\Jesse Bukenberger\Documents\GitHub\TransExpand\DC_OPF_DetEQ\300_bus_WECC_files\gams_models\candidate_plan_opf\cplex.opt"
>>  lpmethod 6
Finished reading from "C:\Users\Jesse Bukenberger\Documents\GitHub\TransExpand\DC_OPF_DetEQ\300_bus_WECC_files\gams_models\candidate_plan_opf\cplex.opt"
Reading data...
Starting Cplex...
Space for names approximately 0.59 Mb
Use option 'names no' to turn use of names off
Parallel mode: deterministic, using up to 4 threads for concurrent optimization.
Tried aggregator 1 time.
LP Presolve eliminated 7 rows and 8779 columns.
Aggregator did 930 substitutions.
Reduced LP has 4950 rows, 9810 columns, and 23184 nonzeros.
Presolve time = 0.01 sec. (11.83 ticks)
Initializing dual steep norms . . .

Iteration log . . .
Iteration:     1   Dual objective     =       4214200.230500
Perturbation started.
Iteration:   101   Dual objective     =       4214200.230500
Iteration:   470   Dual objective     =       4214200.472950
Iteration:   731   Dual objective     =       4214200.620130
Iteration:   989   Dual objective     =       4214200.711940
Iteration:  1172   Dual objective     =       4214200.863988
Iteration:  1360   Dual objective     =       4214201.123171
Iteration:  1515   Dual objective     =       4214201.286130
Iteration:  1687   Dual objective     =       4214201.510030
Iteration:  1837   Dual objective     =       4214201.727643
Markowitz threshold set to 0.1
Iteration:  1983   Dual objective     =       4217410.697921
Iteration:  2135   Dual objective     =       4217410.766664
Iteration:  2334   Dual objective     =       4219465.102952
Iteration:  2505   Dual objective     =       4219751.179661
Iteration:  2675   Dual objective     =       4224250.436102
Iteration:  2843   Dual objective     =       4225092.800450
Iteration:  3003   Dual objective     =       4225805.751355
Iteration:  3146   Dual objective     =       4226083.944021
Iteration:  3300   Dual objective     =       4251807.156048
Iteration:  3438   Dual objective     =       4263075.800071
Iteration:  3624   Dual objective     =       4266782.527416
Iteration:  3755   Dual objective     =       4267512.480516
Iteration:  3891   Dual objective     =       4272159.895542
Iteration:  4076   Dual objective     =       4276560.414863
Iteration:  4237   Dual objective     =       4293177.256305
Iteration:  4367   Dual objective     =       4310071.991112
Iteration:  4506   Dual objective     =       4320282.774093
Iteration:  4653   Dual objective     =       4533177.785201
Removing perturbation.
Using devex.

Barrier solved model.

LP status(1): optimal
Cplex Time: 0.72sec (det. 586.25 ticks)

Optimal solution found.
Objective :     6342934.892711

--- Restarting execution
--- OPF_file.gms(2836) 5 Mb
--- Reading solution for model opf
--- OPF_file.gms(2842) 6 Mb
--- GDX File C:\Users\Jesse Bukenberger\Documents\GitHub\TransExpand\DC_OPF_DetEQ\300_bus_WECC_files\gams_models\candidate_plan_opf\results.gdx
*** Status: Normal completion
--- Job OPF_file.gms Stop 05/29/18 23:40:05 elapsed 0:00:01.025
